NAME: generated_12_asym_1_100_UniformDistrib_noSparse.tsp
TYPE: TSP
COMMENT: Test case generated with custom generator!
DIMENSION: 12
EDGE_WEIGHT_TYPE: EXPLICIT
EDGE_WEIGHT_FORMAT: FULL_MATRIX
DISPLAY_DATA_TYPE: TWOD_DISPLAY
EDGE_WEIGHT_SECTION
0 17 5 49 24 60 85 42 87 20 54 91 
27 0 19 40 33 75 12 45 84 10 98 23 
42 24 0 2 90 41 13 11 97 89 29 86 
24 53 17 0 4 81 14 29 12 85 26 77 
81 3 52 79 0 36 87 96 41 56 43 55 
80 55 28 97 24 0 13 16 66 37 60 9 
64 60 14 46 2 24 0 24 85 47 41 21 
69 41 23 19 78 53 19 0 82 27 97 67 
89 96 53 63 66 29 52 77 0 43 32 6 
25 55 23 90 38 87 73 81 82 0 58 84 
54 56 72 99 67 30 28 70 10 69 0 73 
3 28 21 30 64 51 74 74 27 50 92 0 
